(declare-const in51 Int)
(declare-const in62 Int)
(declare-const in61 Int)
(declare-const in31 Int)
(declare-const in42 Int)
(declare-const in53 Int)
(declare-const in64 Int)
(declare-const in41 Int)
(declare-const in52 Int)
(declare-const in63 Int)
(declare-const in21 Int)
(declare-const in32 Int)
(declare-const in43 Int)
(declare-const in54 Int)
(declare-const in65 Int)
(declare-const in02 Int)
(declare-const in01 Int)
(declare-const in04 Int)
(declare-const in03 Int)
(declare-const in06 Int)
(declare-const in05 Int)

(assert (and (and (and (and (and (and (and (and (and (and (and (and (and (and (and (and (and (and (and (and (and (and (and (and (and (and (and (and (and  ( <  in02 in01)  ( <  in03 in02))  ( <  in04 in03))  ( <  in05 in04))  ( <  in06 in05))  ( <  ( +  in61 in06) in01))  ( <  ( +  in62 in06) in02))  ( <  ( +  in63 in06) in03))  ( <  ( +  in64 in06) in04))  ( <  ( +  in65 in06) in05))  ( <  ( +  in62 in06) ( +  in61 in06)))  ( <  ( +  in63 in06) ( +  in62 in06)))  ( <  ( +  in64 in06) ( +  in63 in06)))  ( <  ( +  in65 in06) ( +  in64 in06)))  ( <  ( +  in51 ( +  in65 in06)) ( +  in61 in06)))  ( <  ( +  in52 ( +  in65 in06)) ( +  in62 in06)))  ( <  ( +  in53 ( +  in65 in06)) ( +  in63 in06)))  ( <  ( +  in54 ( +  in65 in06)) ( +  in64 in06)))  ( <  ( +  in52 ( +  in65 in06)) ( +  in51 ( +  in65 in06))))  ( <  ( +  in53 ( +  in65 in06)) ( +  in52 ( +  in65 in06))))  ( <  ( +  in54 ( +  in65 in06)) ( +  in53 ( +  in65 in06))))  ( <  ( +  in41 ( +  in54 ( +  in65 in06))) ( +  in51 ( +  in65 in06))))  ( <  ( +  in42 ( +  in54 ( +  in65 in06))) ( +  in52 ( +  in65 in06))))  ( <  ( +  in43 ( +  in54 ( +  in65 in06))) ( +  in53 ( +  in65 in06))))  ( <  ( +  in42 ( +  in54 ( +  in65 in06))) ( +  in41 ( +  in54 ( +  in65 in06)))))  ( <  ( +  in43 ( +  in54 ( +  in65 in06))) ( +  in42 ( +  in54 ( +  in65 in06)))))  ( <  ( +  in31 ( +  in43 ( +  in54 ( +  in65 in06)))) ( +  in41 ( +  in54 ( +  in65 in06)))))  ( <  ( +  in32 ( +  in43 ( +  in54 ( +  in65 in06)))) ( +  in42 ( +  in54 ( +  in65 in06)))))  ( <  ( +  in32 ( +  in43 ( +  in54 ( +  in65 in06)))) ( +  in31 ( +  in43 ( +  in54 ( +  in65 in06))))))  ( <  ( +  in21 ( +  in32 ( +  in43 ( +  in54 ( +  in65 in06))))) ( +  in31 ( +  in43 ( +  in54 ( +  in65 in06)))))))

(check-sat)
(get-model)